67 95 10 81 47 4 61 59 52 11 41 42 85 55 91 14 0 73 66 58 71 86 25 23 21 36 99 19 90 43 54 60 46 6 84 31 98 56 72 39 96 2 22 45 15 97 30 13 82 88 75 80 40 64 68 51 28 76 8 79 92 17 62 50 69 7 37 35 65 24 20 78 89 12 70 29 48 33 87 94 3 63 83 34 26 9 74 5 32 57 1 44 16 38 93 18 27 53 77 49 

